NAME        
ROWS
 N  Obj     
 E  r0      
 E  r1      
 E  r2      
COLUMNS
    c0        Obj       -600
    c0        r0        0.2
    c0        r1        0.4
    c0        r2        0.4
    c1        Obj       -900
    c1        r0        0.5
    c1        r2        0.5
    c2        r0        1
    c3        r1        1
    c4        r2        1
RHS
    RHS_V     r0        200
    RHS_V     r1        180
    RHS_V     r2        250
ENDATA
